12 965
525 7 505 7 381 7 218 9 50 11 851 15 668 21
525 7 482 7 362 7 118 9 855 11 673 18
525 7 479 7 358 7 163 9 10 11 784 18
525 7 484 7 368 7 123 9 859 11 681 18
525 7 479 7 359 7 214 9 32 11 788 18
525 7 445 7 264 7 63 9 889 11 721 18
525 7 482 7 394 7 212 9 29 11 822 15 623 21
525 7 504 7 362 7 209 9 25 11 818 15 624 21
525 7 504 7 362 7 209 9 25 11 818 15 624 21
528 7 504 7 413 7 254 9 80 11 923 15 770 20
528 7 504 7 413 7 254 9 80 11 923 15 770 20
528 7 504 7 413 7 254 9 80 11 923 15 770 20
